-371.0 2.0 3.0 2.0 6.0 0.0 2.0 3.0 1.0 0.0 7.0 2.0 4.0 3.0 4.0 8.0 4.0 1.0 3.0 4.0 8.0 2.0 5.0 7.0 9.0 4.0 1.0 1.0 0.0 5.0 0.0 8.0 1.0 10.0 2.0 4.0 8.0 1.0 1.0 4.0 6.0 8.0 10.0 10.0 5.0 10.0 1.0 2.0 7.0 0.0 8.0 8.0 9.0 10.0 5.0 1.0 3.0 6.0 0.0 6.0 3.0 6.0 0.0 5.0 3.0 3.0 10.0 4.0 1.0 5.0 1.0 1.0 6.0 1.0 5.0 1.0 1.0 1.0 8.0 2.0 10.0 1.0 1.0 5.0 4.0 4.0 1.0 2.0 3.0 8.0 10.0 0.0 0.0 
2.0 -441.0 8.0 1.0 7.0 4.0 3.0 8.0 4.0 3.0 10.0 9.0 4.0 5.0 5.0 9.0 6.0 10.0 1.0 1.0 3.0 4.0 4.0 4.0 6.0 3.0 9.0 1.0 7.0 8.0 4.0 8.0 1.0 1.0 9.0 8.0 10.0 7.0 8.0 5.0 9.0 4.0 3.0 5.0 9.0 3.0 5.0 2.0 10.0 3.0 2.0 6.0 7.0 1.0 3.0 6.0 3.0 7.0 2.0 1.0 10.0 1.0 6.0 7.0 5.0 1.0 6.0 2.0 7.0 8.0 3.0 10.0 1.0 9.0 8.0 8.0 5.0 8.0 3.0 1.0 7.0 5.0 4.0 1.0 9.0 2.0 3.0 0.0 0.0 0.0 0.0 0.0 0.0 
3.0 8.0 -425.0 2.0 1.0 3.0 6.0 0.0 5.0 2.0 8.0 4.0 0.0 0.0 5.0 3.0 6.0 5.0 2.0 1.0 2.0 0.0 7.0 4.0 5.0 2.0 2.0 8.0 6.0 6.0 6.0 8.0 10.0 9.0 1.0 5.0 4.0 8.0 7.0 0.0 9.0 0.0 9.0 6.0 5.0 6.0 2.0 4.0 3.0 7.0 2.0 2.0 1.0 10.0 4.0 8.0 9.0 6.0 5.0 5.0 1.0 8.0 1.0 0.0 0.0 3.0 1.0 8.0 6.0 1.0 10.0 1.0 8.0 9.0 8.0 10.0 1.0 5.0 8.0 2.0 2.0 9.0 10.0 4.0 0.0 1.0 6.0 9.0 10.0 0.0 6.0 5.0 5.0 
2.0 1.0 2.0 -461.0 8.0 8.0 3.0 1.0 10.0 6.0 10.0 0.0 9.0 5.0 4.0 4.0 0.0 3.0 1.0 3.0 1.0 10.0 9.0 6.0 8.0 2.0 6.0 0.0 7.0 5.0 3.0 8.0 3.0 10.0 4.0 10.0 4.0 4.0 0.0 1.0 0.0 0.0 8.0 3.0 7.0 8.0 10.0 9.0 9.0 5.0 9.0 3.0 1.0 10.0 0.0 1.0 8.0 0.0 7.0 6.0 9.0 10.0 0.0 5.0 3.0 7.0 6.0 7.0 5.0 5.0 9.0 3.0 1.0 9.0 5.0 0.0 4.0 7.0 1.0 10.0 7.0 6.0 7.0 2.0 2.0 8.0 8.0 6.0 3.0 9.0 1.0 3.0 8.0 
6.0 7.0 1.0 8.0 -444.0 8.0 2.0 7.0 3.0 6.0 0.0 2.0 4.0 2.0 2.0 0.0 0.0 10.0 6.0 5.0 9.0 0.0 3.0 4.0 2.0 9.0 3.0 10.0 1.0 4.0 9.0 9.0 6.0 4.0 8.0 5.0 0.0 4.0 5.0 7.0 1.0 9.0 1.0 3.0 7.0 6.0 8.0 0.0 4.0 9.0 1.0 9.0 10.0 10.0 10.0 7.0 4.0 9.0 7.0 3.0 10.0 1.0 8.0 0.0 1.0 10.0 4.0 3.0 3.0 6.0 2.0 7.0 7.0 0.0 3.0 1.0 10.0 3.0 9.0 9.0 4.0 9.0 1.0 3.0 1.0 6.0 5.0 1.0 0.0 0.0 5.0 8.0 5.0 
0.0 4.0 3.0 8.0 8.0 -467.0 4.0 5.0 7.0 0.0 3.0 9.0 9.0 5.0 4.0 1.0 2.0 4.0 5.0 6.0 8.0 10.0 1.0 0.0 2.0 10.0 3.0 9.0 1.0 7.0 10.0 8.0 8.0 5.0 0.0 2.0 4.0 8.0 7.0 6.0 7.0 4.0 9.0 8.0 7.0 9.0 8.0 4.0 3.0 6.0 9.0 3.0 1.0 8.0 9.0 6.0 9.0 2.0 2.0 3.0 7.0 6.0 8.0 0.0 0.0 5.0 2.0 6.0 3.0 1.0 9.0 10.0 1.0 2.0 9.0 6.0 2.0 5.0 3.0 0.0 5.0 8.0 0.0 9.0 4.0 7.0 8.0 4.0 1.0 0.0 9.0 6.0 8.0 
2.0 3.0 6.0 3.0 2.0 4.0 -435.0 5.0 4.0 2.0 3.0 4.0 1.0 6.0 1.0 1.0 4.0 5.0 10.0 9.0 2.0 6.0 6.0 7.0 2.0 3.0 1.0 2.0 5.0 0.0 10.0 9.0 4.0 3.0 8.0 6.0 1.0 1.0 8.0 0.0 3.0 2.0 1.0 7.0 8.0 9.0 7.0 2.0 5.0 1.0 4.0 7.0 9.0 3.0 9.0 7.0 4.0 10.0 3.0 4.0 9.0 10.0 2.0 0.0 7.0 5.0 3.0 1.0 2.0 4.0 9.0 5.0 3.0 6.0 7.0 7.0 10.0 1.0 3.0 10.0 3.0 1.0 7.0 6.0 10.0 1.0 8.0 3.0 9.0 3.0 6.0 10.0 0.0 
3.0 8.0 0.0 1.0 7.0 5.0 5.0 -518.0 5.0 2.0 6.0 9.0 4.0 9.0 9.0 3.0 0.0 8.0 2.0 8.0 2.0 1.0 8.0 9.0 7.0 1.0 9.0 9.0 4.0 8.0 9.0 5.0 9.0 6.0 2.0 3.0 1.0 8.0 8.0 3.0 3.0 10.0 8.0 8.0 7.0 4.0 1.0 10.0 8.0 5.0 0.0 9.0 8.0 7.0 0.0 4.0 8.0 7.0 5.0 9.0 8.0 10.0 7.0 6.0 2.0 10.0 8.0 6.0 5.0 2.0 5.0 8.0 2.0 2.0 0.0 8.0 10.0 6.0 3.0 0.0 3.0 7.0 9.0 10.0 5.0 10.0 9.0 6.0 3.0 7.0 5.0 3.0 6.0 
1.0 4.0 5.0 10.0 3.0 7.0 4.0 5.0 -429.0 1.0 10.0 9.0 1.0 0.0 10.0 1.0 2.0 7.0 0.0 8.0 10.0 9.0 0.0 9.0 6.0 0.0 7.0 0.0 0.0 0.0 9.0 10.0 0.0 6.0 6.0 7.0 7.0 1.0 6.0 4.0 1.0 1.0 10.0 5.0 0.0 5.0 4.0 2.0 7.0 3.0 3.0 7.0 5.0 4.0 6.0 5.0 7.0 4.0 4.0 4.0 5.0 4.0 8.0 1.0 2.0 4.0 2.0 8.0 0.0 10.0 1.0 7.0 8.0 6.0 1.0 7.0 10.0 10.0 2.0 5.0 4.0 8.0 7.0 1.0 0.0 10.0 1.0 0.0 0.0 9.0 7.0 5.0 4.0 
0.0 3.0 2.0 6.0 6.0 0.0 2.0 2.0 1.0 -402.0 4.0 7.0 0.0 3.0 7.0 6.0 8.0 3.0 9.0 4.0 2.0 6.0 1.0 10.0 0.0 7.0 6.0 6.0 7.0 6.0 9.0 2.0 0.0 8.0 7.0 1.0 3.0 2.0 5.0 2.0 2.0 2.0 3.0 7.0 2.0 3.0 3.0 4.0 6.0 8.0 3.0 10.0 4.0 8.0 0.0 1.0 8.0 3.0 5.0 6.0 2.0 10.0 4.0 10.0 8.0 9.0 6.0 8.0 2.0 2.0 5.0 1.0 1.0 3.0 3.0 4.0 10.0 4.0 5.0 1.0 5.0 10.0 1.0 2.0 7.0 9.0 1.0 4.0 4.0 0.0 3.0 7.0 0.0 
7.0 10.0 8.0 10.0 0.0 3.0 3.0 6.0 10.0 4.0 -491.0 8.0 8.0 2.0 6.0 5.0 7.0 7.0 5.0 6.0 9.0 4.0 6.0 0.0 8.0 0.0 4.0 3.0 10.0 1.0 7.0 4.0 5.0 2.0 0.0 4.0 9.0 3.0 9.0 8.0 1.0 10.0 6.0 3.0 5.0 5.0 8.0 6.0 4.0 0.0 10.0 2.0 7.0 2.0 3.0 2.0 8.0 4.0 8.0 8.0 6.0 10.0 5.0 8.0 6.0 10.0 3.0 4.0 3.0 3.0 9.0 10.0 5.0 8.0 7.0 3.0 3.0 0.0 0.0 9.0 8.0 9.0 10.0 7.0 8.0 5.0 0.0 2.0 5.0 0.0 2.0 9.0 1.0 
2.0 9.0 4.0 0.0 2.0 9.0 4.0 9.0 9.0 7.0 8.0 -486.0 8.0 3.0 0.0 0.0 8.0 5.0 4.0 1.0 10.0 6.0 3.0 7.0 9.0 5.0 4.0 0.0 8.0 2.0 6.0 7.0 5.0 4.0 7.0 5.0 4.0 10.0 4.0 4.0 9.0 3.0 5.0 5.0 8.0 2.0 9.0 4.0 2.0 2.0 7.0 2.0 7.0 2.0 8.0 8.0 10.0 0.0 6.0 9.0 6.0 4.0 10.0 1.0 5.0 0.0 7.0 7.0 1.0 3.0 4.0 5.0 6.0 3.0 10.0 7.0 7.0 0.0 3.0 8.0 7.0 5.0 2.0 0.0 10.0 10.0 1.0 4.0 8.0 6.0 8.0 9.0 9.0 
4.0 4.0 0.0 9.0 4.0 9.0 1.0 4.0 1.0 0.0 8.0 8.0 -489.0 7.0 7.0 10.0 6.0 3.0 3.0 10.0 10.0 9.0 8.0 9.0 3.0 3.0 3.0 7.0 10.0 9.0 8.0 5.0 9.0 1.0 10.0 8.0 8.0 1.0 2.0 1.0 7.0 3.0 9.0 9.0 3.0 9.0 6.0 1.0 7.0 2.0 8.0 7.0 4.0 6.0 0.0 6.0 9.0 9.0 6.0 9.0 10.0 8.0 6.0 1.0 9.0 6.0 1.0 3.0 4.0 4.0 2.0 3.0 6.0 4.0 2.0 5.0 2.0 8.0 4.0 5.0 8.0 5.0 7.0 1.0 9.0 6.0 3.0 8.0 1.0 0.0 0.0 4.0 2.0 
3.0 5.0 0.0 5.0 2.0 5.0 6.0 9.0 0.0 3.0 2.0 3.0 7.0 -468.0 6.0 4.0 3.0 4.0 0.0 10.0 9.0 6.0 10.0 4.0 2.0 5.0 10.0 2.0 6.0 9.0 7.0 4.0 4.0 8.0 10.0 10.0 7.0 10.0 0.0 4.0 10.0 3.0 3.0 8.0 5.0 2.0 7.0 1.0 10.0 9.0 1.0 0.0 0.0 4.0 3.0 5.0 3.0 5.0 7.0 1.0 9.0 1.0 3.0 6.0 6.0 4.0 8.0 1.0 4.0 5.0 10.0 1.0 7.0 2.0 8.0 9.0 9.0 8.0 7.0 3.0 0.0 2.0 9.0 5.0 8.0 2.0 8.0 6.0 3.0 0.0 10.0 6.0 7.0 
4.0 5.0 5.0 4.0 2.0 4.0 1.0 9.0 10.0 7.0 6.0 0.0 7.0 6.0 -454.0 0.0 7.0 7.0 9.0 0.0 7.0 9.0 0.0 7.0 8.0 2.0 8.0 8.0 6.0 1.0 0.0 10.0 3.0 10.0 4.0 5.0 6.0 8.0 7.0 5.0 10.0 5.0 3.0 9.0 0.0 1.0 6.0 1.0 1.0 7.0 5.0 1.0 0.0 2.0 9.0 5.0 6.0 10.0 7.0 0.0 5.0 2.0 10.0 4.0 5.0 8.0 4.0 6.0 4.0 1.0 3.0 0.0 7.0 4.0 5.0 3.0 6.0 7.0 8.0 4.0 8.0 6.0 7.0 5.0 3.0 3.0 3.0 7.0 5.0 0.0 4.0 10.0 2.0 
8.0 9.0 3.0 4.0 0.0 1.0 1.0 3.0 1.0 6.0 5.0 0.0 10.0 4.0 0.0 -441.0 9.0 7.0 10.0 5.0 6.0 6.0 1.0 2.0 3.0 7.0 6.0 5.0 10.0 10.0 3.0 0.0 8.0 8.0 9.0 0.0 3.0 1.0 9.0 3.0 7.0 3.0 4.0 8.0 7.0 5.0 4.0 6.0 2.0 5.0 2.0 6.0 5.0 5.0 7.0 3.0 5.0 7.0 10.0 10.0 7.0 1.0 7.0 3.0 4.0 6.0 7.0 5.0 9.0 0.0 6.0 6.0 6.0 0.0 10.0 0.0 1.0 5.0 2.0 2.0 10.0 8.0 1.0 4.0 4.0 0.0 1.0 2.0 10.0 0.0 4.0 4.0 9.0 
4.0 6.0 6.0 0.0 0.0 2.0 4.0 0.0 2.0 8.0 7.0 8.0 6.0 3.0 7.0 9.0 -455.0 7.0 10.0 7.0 4.0 4.0 2.0 5.0 9.0 6.0 4.0 7.0 9.0 8.0 9.0 4.0 9.0 2.0 1.0 9.0 3.0 8.0 1.0 5.0 5.0 2.0 7.0 9.0 0.0 7.0 6.0 8.0 3.0 3.0 5.0 9.0 2.0 5.0 6.0 0.0 2.0 9.0 6.0 5.0 3.0 1.0 0.0 8.0 1.0 1.0 8.0 10.0 2.0 0.0 8.0 7.0 8.0 5.0 3.0 3.0 4.0 5.0 5.0 6.0 8.0 2.0 3.0 8.0 2.0 3.0 9.0 5.0 1.0 0.0 9.0 6.0 7.0 
1.0 10.0 5.0 3.0 10.0 4.0 5.0 8.0 7.0 3.0 7.0 5.0 3.0 4.0 7.0 7.0 7.0 -507.0 10.0 9.0 10.0 10.0 3.0 0.0 8.0 5.0 5.0 9.0 6.0 9.0 6.0 1.0 10.0 6.0 1.0 0.0 8.0 10.0 9.0 5.0 5.0 4.0 7.0 9.0 0.0 2.0 7.0 2.0 5.0 5.0 4.0 7.0 10.0 3.0 7.0 3.0 3.0 9.0 5.0 1.0 4.0 4.0 5.0 5.0 3.0 7.0 7.0 6.0 10.0 5.0 2.0 2.0 5.0 1.0 7.0 2.0 8.0 4.0 5.0 6.0 3.0 8.0 9.0 7.0 2.0 8.0 5.0 9.0 4.0 6.0 4.0 9.0 1.0 
3.0 1.0 2.0 1.0 6.0 5.0 10.0 2.0 0.0 9.0 5.0 4.0 3.0 0.0 9.0 10.0 10.0 10.0 -448.0 3.0 3.0 10.0 1.0 0.0 5.0 2.0 7.0 6.0 9.0 0.0 3.0 6.0 7.0 1.0 0.0 8.0 8.0 6.0 5.0 8.0 4.0 6.0 5.0 1.0 7.0 10.0 3.0 8.0 4.0 10.0 1.0 1.0 2.0 3.0 6.0 6.0 5.0 10.0 10.0 0.0 7.0 4.0 4.0 1.0 3.0 10.0 2.0 7.0 6.0 2.0 2.0 9.0 1.0 2.0 4.0 3.0 5.0 9.0 0.0 4.0 8.0 6.0 9.0 10.0 7.0 0.0 8.0 7.0 7.0 3.0 4.0 3.0 1.0 
4.0 1.0 1.0 3.0 5.0 6.0 9.0 8.0 8.0 4.0 6.0 1.0 10.0 10.0 0.0 5.0 7.0 9.0 3.0 -433.0 1.0 1.0 6.0 10.0 2.0 6.0 4.0 1.0 3.0 4.0 2.0 1.0 7.0 5.0 7.0 2.0 7.0 6.0 9.0 6.0 5.0 6.0 10.0 0.0 1.0 3.0 1.0 3.0 6.0 5.0 0.0 3.0 9.0 8.0 9.0 0.0 7.0 4.0 2.0 0.0 7.0 10.0 0.0 5.0 7.0 0.0 5.0 2.0 8.0 5.0 6.0 0.0 9.0 10.0 5.0 7.0 3.0 4.0 6.0 3.0 9.0 0.0 10.0 10.0 5.0 7.0 3.0 4.0 1.0 5.0 2.0 0.0 3.0 
8.0 3.0 2.0 1.0 9.0 8.0 2.0 2.0 10.0 2.0 9.0 10.0 10.0 9.0 7.0 6.0 4.0 10.0 3.0 1.0 -448.0 1.0 1.0 8.0 6.0 3.0 5.0 6.0 1.0 6.0 2.0 10.0 6.0 8.0 5.0 8.0 5.0 10.0 8.0 2.0 6.0 6.0 3.0 1.0 3.0 5.0 2.0 6.0 1.0 3.0 6.0 5.0 7.0 0.0 8.0 3.0 3.0 6.0 1.0 8.0 3.0 5.0 5.0 1.0 4.0 2.0 6.0 8.0 7.0 4.0 1.0 6.0 3.0 10.0 1.0 0.0 1.0 10.0 4.0 5.0 1.0 9.0 8.0 4.0 3.0 6.0 9.0 1.0 0.0 5.0 2.0 6.0 8.0 
2.0 4.0 0.0 10.0 0.0 10.0 6.0 1.0 9.0 6.0 4.0 6.0 9.0 6.0 9.0 6.0 4.0 10.0 10.0 1.0 1.0 -443.0 10.0 0.0 1.0 5.0 10.0 9.0 5.0 0.0 0.0 2.0 1.0 1.0 7.0 9.0 9.0 4.0 6.0 2.0 5.0 4.0 3.0 1.0 2.0 2.0 8.0 9.0 5.0 4.0 1.0 2.0 6.0 5.0 6.0 6.0 10.0 8.0 9.0 2.0 6.0 2.0 6.0 8.0 6.0 9.0 10.0 2.0 3.0 1.0 6.0 0.0 8.0 5.0 6.0 0.0 4.0 0.0 9.0 2.0 0.0 0.0 6.0 1.0 2.0 1.0 1.0 5.0 4.0 9.0 10.0 9.0 9.0 
5.0 4.0 7.0 9.0 3.0 1.0 6.0 8.0 0.0 1.0 6.0 3.0 8.0 10.0 0.0 1.0 2.0 3.0 1.0 6.0 1.0 10.0 -419.0 10.0 1.0 1.0 3.0 4.0 3.0 3.0 8.0 10.0 2.0 3.0 3.0 5.0 5.0 4.0 1.0 10.0 4.0 6.0 1.0 2.0 8.0 1.0 0.0 2.0 2.0 0.0 10.0 3.0 7.0 6.0 8.0 3.0 7.0 7.0 5.0 5.0 1.0 3.0 4.0 6.0 9.0 8.0 1.0 9.0 2.0 8.0 2.0 9.0 7.0 10.0 6.0 6.0 1.0 2.0 9.0 1.0 6.0 2.0 0.0 0.0 4.0 8.0 1.0 0.0 4.0 10.0 10.0 4.0 8.0 
7.0 4.0 4.0 6.0 4.0 0.0 7.0 9.0 9.0 10.0 0.0 7.0 9.0 4.0 7.0 2.0 5.0 0.0 0.0 10.0 8.0 0.0 10.0 -471.0 0.0 7.0 4.0 7.0 9.0 2.0 1.0 1.0 0.0 2.0 3.0 0.0 10.0 6.0 0.0 10.0 4.0 6.0 8.0 2.0 5.0 6.0 9.0 9.0 9.0 5.0 3.0 7.0 3.0 9.0 2.0 7.0 0.0 9.0 7.0 9.0 2.0 10.0 4.0 3.0 9.0 1.0 4.0 10.0 2.0 8.0 7.0 4.0 8.0 10.0 1.0 9.0 8.0 1.0 0.0 9.0 5.0 6.0 4.0 0.0 4.0 10.0 9.0 1.0 3.0 1.0 7.0 4.0 4.0 
9.0 6.0 5.0 8.0 2.0 2.0 2.0 7.0 6.0 0.0 8.0 9.0 3.0 2.0 8.0 3.0 9.0 8.0 5.0 2.0 6.0 1.0 1.0 0.0 -441.0 0.0 10.0 9.0 3.0 7.0 5.0 4.0 6.0 8.0 1.0 8.0 10.0 5.0 10.0 8.0 7.0 5.0 0.0 1.0 10.0 1.0 2.0 5.0 8.0 1.0 0.0 5.0 10.0 3.0 7.0 8.0 5.0 1.0 1.0 8.0 9.0 4.0 3.0 4.0 9.0 1.0 2.0 1.0 10.0 8.0 7.0 6.0 9.0 0.0 5.0 7.0 4.0 0.0 2.0 10.0 0.0 7.0 4.0 4.0 4.0 3.0 0.0 4.0 10.0 1.0 1.0 1.0 7.0 
4.0 3.0 2.0 2.0 9.0 10.0 3.0 1.0 0.0 7.0 0.0 5.0 3.0 5.0 2.0 7.0 6.0 5.0 2.0 6.0 3.0 5.0 1.0 7.0 0.0 -448.0 3.0 4.0 0.0 8.0 10.0 0.0 4.0 4.0 3.0 3.0 9.0 8.0 5.0 2.0 10.0 8.0 6.0 4.0 5.0 7.0 9.0 0.0 5.0 1.0 10.0 3.0 9.0 9.0 6.0 5.0 8.0 8.0 4.0 9.0 6.0 2.0 9.0 8.0 10.0 0.0 2.0 3.0 6.0 5.0 7.0 2.0 9.0 4.0 9.0 1.0 9.0 6.0 2.0 9.0 6.0 3.0 4.0 1.0 3.0 5.0 6.0 7.0 9.0 1.0 5.0 2.0 0.0 
1.0 9.0 2.0 6.0 3.0 3.0 1.0 9.0 7.0 6.0 4.0 4.0 3.0 10.0 8.0 6.0 4.0 5.0 7.0 4.0 5.0 10.0 3.0 4.0 10.0 3.0 -506.0 0.0 6.0 9.0 4.0 2.0 8.0 5.0 10.0 3.0 7.0 3.0 10.0 5.0 3.0 10.0 10.0 8.0 7.0 4.0 9.0 8.0 5.0 2.0 2.0 2.0 10.0 1.0 7.0 2.0 5.0 7.0 2.0 6.0 7.0 1.0 3.0 7.0 10.0 4.0 8.0 9.0 3.0 3.0 8.0 4.0 5.0 8.0 2.0 3.0 4.0 9.0 8.0 4.0 0.0 4.0 10.0 9.0 9.0 1.0 5.0 9.0 4.0 7.0 3.0 7.0 9.0 
1.0 1.0 8.0 0.0 10.0 9.0 2.0 9.0 0.0 6.0 3.0 0.0 7.0 2.0 8.0 5.0 7.0 9.0 6.0 1.0 6.0 9.0 4.0 7.0 9.0 4.0 0.0 -445.0 0.0 6.0 5.0 10.0 6.0 3.0 1.0 1.0 2.0 0.0 2.0 1.0 4.0 2.0 10.0 9.0 7.0 10.0 8.0 1.0 1.0 0.0 0.0 9.0 0.0 4.0 5.0 7.0 8.0 2.0 0.0 7.0 0.0 9.0 4.0 8.0 5.0 7.0 10.0 4.0 1.0 6.0 1.0 10.0 2.0 2.0 9.0 7.0 4.0 4.0 7.0 9.0 7.0 4.0 6.0 7.0 10.0 5.0 5.0 5.0 0.0 9.0 1.0 3.0 10.0 
0.0 7.0 6.0 7.0 1.0 1.0 5.0 4.0 0.0 7.0 10.0 8.0 10.0 6.0 6.0 10.0 9.0 6.0 9.0 3.0 1.0 5.0 3.0 9.0 3.0 0.0 6.0 0.0 -451.0 4.0 8.0 3.0 4.0 2.0 0.0 5.0 1.0 7.0 6.0 5.0 9.0 1.0 2.0 10.0 3.0 2.0 6.0 3.0 1.0 3.0 8.0 2.0 5.0 0.0 10.0 6.0 9.0 10.0 10.0 1.0 6.0 1.0 0.0 6.0 7.0 8.0 9.0 7.0 4.0 3.0 2.0 7.0 1.0 1.0 10.0 8.0 2.0 3.0 10.0 6.0 0.0 3.0 2.0 2.0 4.0 5.0 9.0 9.0 3.0 6.0 3.0 7.0 9.0 
5.0 8.0 6.0 5.0 4.0 7.0 0.0 8.0 0.0 6.0 1.0 2.0 9.0 9.0 1.0 10.0 8.0 9.0 0.0 4.0 6.0 0.0 3.0 2.0 7.0 8.0 9.0 6.0 4.0 -501.0 5.0 10.0 0.0 7.0 6.0 2.0 4.0 2.0 8.0 4.0 8.0 7.0 5.0 7.0 4.0 10.0 10.0 5.0 5.0 5.0 10.0 0.0 0.0 2.0 10.0 2.0 7.0 2.0 5.0 6.0 4.0 10.0 10.0 10.0 4.0 10.0 0.0 6.0 1.0 6.0 6.0 2.0 2.0 6.0 3.0 6.0 3.0 5.0 10.0 10.0 9.0 10.0 1.0 1.0 3.0 10.0 2.0 7.0 8.0 4.0 10.0 7.0 10.0 
0.0 4.0 6.0 3.0 9.0 10.0 10.0 9.0 9.0 9.0 7.0 6.0 8.0 7.0 0.0 3.0 9.0 6.0 3.0 2.0 2.0 0.0 8.0 1.0 5.0 10.0 4.0 5.0 8.0 5.0 -511.0 1.0 9.0 7.0 10.0 7.0 0.0 9.0 5.0 4.0 7.0 6.0 5.0 7.0 6.0 6.0 8.0 3.0 0.0 2.0 3.0 10.0 5.0 8.0 10.0 8.0 5.0 8.0 5.0 6.0 7.0 3.0 4.0 6.0 8.0 4.0 4.0 10.0 9.0 0.0 7.0 5.0 6.0 4.0 2.0 5.0 5.0 0.0 7.0 8.0 9.0 0.0 6.0 3.0 5.0 10.0 7.0 2.0 6.0 1.0 9.0 3.0 8.0 
8.0 8.0 8.0 8.0 9.0 8.0 9.0 5.0 10.0 2.0 4.0 7.0 5.0 4.0 10.0 0.0 4.0 1.0 6.0 1.0 10.0 2.0 10.0 1.0 4.0 0.0 2.0 10.0 3.0 10.0 1.0 -443.0 1.0 8.0 5.0 4.0 7.0 3.0 9.0 1.0 2.0 0.0 4.0 7.0 0.0 4.0 7.0 1.0 9.0 5.0 5.0 6.0 9.0 8.0 3.0 2.0 9.0 4.0 8.0 9.0 1.0 3.0 0.0 2.0 0.0 4.0 9.0 6.0 4.0 6.0 6.0 4.0 8.0 2.0 0.0 0.0 2.0 6.0 10.0 5.0 1.0 3.0 4.0 7.0 9.0 9.0 0.0 10.0 0.0 3.0 3.0 4.0 2.0 
1.0 1.0 10.0 3.0 6.0 8.0 4.0 9.0 0.0 0.0 5.0 5.0 9.0 4.0 3.0 8.0 9.0 10.0 7.0 7.0 6.0 1.0 2.0 0.0 6.0 4.0 8.0 6.0 4.0 0.0 9.0 1.0 -479.0 7.0 9.0 4.0 6.0 10.0 6.0 9.0 2.0 8.0 1.0 8.0 10.0 4.0 3.0 7.0 6.0 5.0 0.0 7.0 7.0 9.0 8.0 0.0 5.0 6.0 9.0 6.0 9.0 1.0 1.0 10.0 1.0 8.0 9.0 6.0 7.0 2.0 2.0 5.0 1.0 6.0 7.0 1.0 1.0 9.0 4.0 3.0 2.0 0.0 9.0 1.0 1.0 9.0 5.0 9.0 9.0 10.0 9.0 3.0 1.0 
10.0 1.0 9.0 10.0 4.0 5.0 3.0 6.0 6.0 8.0 2.0 4.0 1.0 8.0 10.0 8.0 2.0 6.0 1.0 5.0 8.0 1.0 3.0 2.0 8.0 4.0 5.0 3.0 2.0 7.0 7.0 8.0 7.0 -448.0 2.0 5.0 9.0 0.0 5.0 3.0 8.0 6.0 5.0 6.0 6.0 8.0 5.0 9.0 2.0 1.0 2.0 3.0 9.0 1.0 6.0 0.0 0.0 0.0 4.0 5.0 9.0 5.0 7.0 3.0 4.0 4.0 10.0 1.0 7.0 3.0 10.0 9.0 1.0 7.0 7.0 1.0 5.0 0.0 8.0 4.0 0.0 0.0 6.0 1.0 7.0 9.0 3.0 4.0 4.0 2.0 4.0 10.0 9.0 
2.0 9.0 1.0 4.0 8.0 0.0 8.0 2.0 6.0 7.0 0.0 7.0 10.0 10.0 4.0 9.0 1.0 1.0 0.0 7.0 5.0 7.0 3.0 3.0 1.0 3.0 10.0 1.0 0.0 6.0 10.0 5.0 9.0 2.0 -458.0 0.0 10.0 7.0 10.0 9.0 7.0 3.0 3.0 2.0 4.0 2.0 1.0 5.0 0.0 8.0 0.0 5.0 5.0 8.0 8.0 1.0 5.0 5.0 5.0 7.0 6.0 0.0 5.0 10.0 3.0 10.0 9.0 4.0 10.0 10.0 10.0 5.0 7.0 7.0 3.0 10.0 9.0 10.0 0.0 0.0 1.0 4.0 4.0 4.0 8.0 3.0 8.0 0.0 1.0 3.0 2.0 4.0 7.0 
4.0 8.0 5.0 10.0 5.0 2.0 6.0 3.0 7.0 1.0 4.0 5.0 8.0 10.0 5.0 0.0 9.0 0.0 8.0 2.0 8.0 9.0 5.0 0.0 8.0 3.0 3.0 1.0 5.0 2.0 7.0 4.0 4.0 5.0 0.0 -424.0 0.0 4.0 2.0 8.0 8.0 0.0 0.0 10.0 7.0 7.0 10.0 7.0 4.0 9.0 8.0 4.0 0.0 1.0 6.0 3.0 2.0 5.0 8.0 7.0 7.0 0.0 8.0 3.0 4.0 5.0 0.0 2.0 0.0 5.0 5.0 6.0 7.0 1.0 7.0 10.0 0.0 3.0 3.0 9.0 3.0 1.0 0.0 1.0 5.0 7.0 3.0 4.0 8.0 1.0 8.0 3.0 9.0 
8.0 10.0 4.0 4.0 0.0 4.0 1.0 1.0 7.0 3.0 9.0 4.0 8.0 7.0 6.0 3.0 3.0 8.0 8.0 7.0 5.0 9.0 5.0 10.0 10.0 9.0 7.0 2.0 1.0 4.0 0.0 7.0 6.0 9.0 10.0 0.0 -495.0 9.0 8.0 2.0 9.0 3.0 1.0 8.0 7.0 10.0 3.0 10.0 3.0 8.0 10.0 5.0 2.0 9.0 8.0 1.0 5.0 4.0 8.0 3.0 6.0 7.0 4.0 10.0 0.0 5.0 0.0 4.0 4.0 5.0 4.0 3.0 7.0 10.0 10.0 8.0 0.0 9.0 3.0 6.0 9.0 4.0 0.0 9.0 0.0 6.0 1.0 9.0 2.0 1.0 3.0 10.0 1.0 
1.0 7.0 8.0 4.0 4.0 8.0 1.0 8.0 1.0 2.0 3.0 10.0 1.0 10.0 8.0 1.0 8.0 10.0 6.0 6.0 10.0 4.0 4.0 6.0 5.0 8.0 3.0 0.0 7.0 2.0 9.0 3.0 10.0 0.0 7.0 4.0 9.0 -499.0 9.0 5.0 6.0 10.0 4.0 8.0 3.0 6.0 3.0 4.0 3.0 0.0 4.0 5.0 8.0 4.0 7.0 7.0 5.0 8.0 3.0 9.0 7.0 10.0 8.0 2.0 2.0 1.0 10.0 2.0 3.0 8.0 0.0 8.0 1.0 8.0 9.0 4.0 7.0 8.0 9.0 7.0 5.0 0.0 2.0 10.0 4.0 7.0 7.0 0.0 9.0 10.0 1.0 9.0 2.0 
1.0 8.0 7.0 0.0 5.0 7.0 8.0 8.0 6.0 5.0 9.0 4.0 2.0 0.0 7.0 9.0 1.0 9.0 5.0 9.0 8.0 6.0 1.0 0.0 10.0 5.0 10.0 2.0 6.0 8.0 5.0 9.0 6.0 5.0 10.0 2.0 8.0 9.0 -506.0 0.0 7.0 3.0 5.0 8.0 0.0 0.0 0.0 4.0 7.0 8.0 10.0 4.0 8.0 10.0 8.0 0.0 8.0 7.0 7.0 10.0 8.0 10.0 8.0 10.0 6.0 0.0 6.0 9.0 7.0 8.0 4.0 7.0 5.0 4.0 0.0 10.0 0.0 0.0 0.0 1.0 4.0 3.0 1.0 10.0 1.0 3.0 8.0 9.0 10.0 10.0 5.0 5.0 0.0 
4.0 5.0 0.0 1.0 7.0 6.0 0.0 3.0 4.0 2.0 8.0 4.0 1.0 4.0 5.0 3.0 5.0 5.0 8.0 6.0 2.0 2.0 10.0 10.0 8.0 2.0 5.0 1.0 5.0 4.0 4.0 1.0 9.0 3.0 9.0 8.0 2.0 5.0 0.0 -429.0 5.0 0.0 5.0 7.0 0.0 8.0 0.0 0.0 7.0 9.0 5.0 10.0 1.0 3.0 2.0 9.0 7.0 4.0 4.0 2.0 1.0 3.0 7.0 4.0 4.0 5.0 4.0 4.0 6.0 0.0 10.0 1.0 4.0 0.0 2.0 8.0 10.0 7.0 5.0 4.0 5.0 6.0 5.0 9.0 0.0 4.0 1.0 7.0 10.0 4.0 10.0 10.0 10.0 
6.0 9.0 9.0 0.0 1.0 7.0 3.0 3.0 1.0 2.0 1.0 9.0 7.0 10.0 10.0 7.0 5.0 5.0 4.0 5.0 6.0 5.0 4.0 4.0 7.0 10.0 3.0 4.0 9.0 8.0 7.0 2.0 2.0 8.0 7.0 8.0 9.0 6.0 7.0 5.0 -461.0 4.0 10.0 8.0 9.0 0.0 1.0 0.0 2.0 10.0 4.0 6.0 6.0 2.0 3.0 5.0 5.0 9.0 1.0 7.0 6.0 4.0 0.0 4.0 10.0 5.0 3.0 6.0 1.0 6.0 9.0 5.0 8.0 7.0 5.0 8.0 10.0 1.0 0.0 1.0 6.0 4.0 2.0 2.0 4.0 6.0 3.0 3.0 2.0 4.0 7.0 2.0 0.0 
8.0 4.0 0.0 0.0 9.0 4.0 2.0 10.0 1.0 2.0 10.0 3.0 3.0 3.0 5.0 3.0 2.0 4.0 6.0 6.0 6.0 4.0 6.0 6.0 5.0 8.0 10.0 2.0 1.0 7.0 6.0 0.0 8.0 6.0 3.0 0.0 3.0 10.0 3.0 0.0 4.0 -413.0 4.0 10.0 0.0 8.0 0.0 0.0 4.0 7.0 2.0 4.0 0.0 1.0 3.0 5.0 4.0 7.0 10.0 4.0 9.0 0.0 3.0 5.0 0.0 2.0 9.0 1.0 1.0 0.0 3.0 8.0 7.0 10.0 2.0 3.0 4.0 8.0 5.0 3.0 3.0 9.0 5.0 2.0 8.0 10.0 2.0 7.0 9.0 5.0 3.0 10.0 1.0 
10.0 3.0 9.0 8.0 1.0 9.0 1.0 8.0 10.0 3.0 6.0 5.0 9.0 3.0 3.0 4.0 7.0 7.0 5.0 10.0 3.0 3.0 1.0 8.0 0.0 6.0 10.0 10.0 2.0 5.0 5.0 4.0 1.0 5.0 3.0 0.0 1.0 4.0 5.0 5.0 10.0 4.0 -458.0 2.0 9.0 1.0 0.0 7.0 4.0 6.0 6.0 6.0 9.0 8.0 10.0 5.0 0.0 4.0 10.0 1.0 9.0 3.0 7.0 6.0 5.0 7.0 0.0 10.0 7.0 4.0 6.0 7.0 7.0 8.0 10.0 2.0 10.0 4.0 0.0 8.0 0.0 1.0 4.0 0.0 2.0 2.0 2.0 9.0 5.0 6.0 2.0 0.0 1.0 
10.0 5.0 6.0 3.0 3.0 8.0 7.0 8.0 5.0 7.0 3.0 5.0 9.0 8.0 9.0 8.0 9.0 9.0 1.0 0.0 1.0 1.0 2.0 2.0 1.0 4.0 8.0 9.0 10.0 7.0 7.0 7.0 8.0 6.0 2.0 10.0 8.0 8.0 8.0 7.0 8.0 10.0 2.0 -516.0 7.0 0.0 7.0 0.0 5.0 1.0 5.0 5.0 6.0 7.0 4.0 7.0 7.0 2.0 4.0 7.0 6.0 0.0 10.0 1.0 2.0 0.0 6.0 5.0 10.0 3.0 7.0 6.0 2.0 1.0 7.0 7.0 8.0 7.0 10.0 3.0 4.0 9.0 10.0 0.0 9.0 2.0 3.0 7.0 8.0 3.0 9.0 8.0 10.0 
5.0 9.0 5.0 7.0 7.0 7.0 8.0 7.0 0.0 2.0 5.0 8.0 3.0 5.0 0.0 7.0 0.0 0.0 7.0 1.0 3.0 2.0 8.0 5.0 10.0 5.0 7.0 7.0 3.0 4.0 6.0 0.0 10.0 6.0 4.0 7.0 7.0 3.0 0.0 0.0 9.0 0.0 9.0 7.0 -394.0 5.0 9.0 4.0 2.0 2.0 0.0 2.0 2.0 0.0 1.0 1.0 3.0 2.0 1.0 3.0 2.0 5.0 0.0 3.0 7.0 5.0 3.0 5.0 3.0 10.0 0.0 7.0 1.0 1.0 0.0 8.0 10.0 6.0 2.0 5.0 5.0 0.0 9.0 3.0 2.0 6.0 5.0 8.0 1.0 9.0 3.0 2.0 6.0 
10.0 3.0 6.0 8.0 6.0 9.0 9.0 4.0 5.0 3.0 5.0 2.0 9.0 2.0 1.0 5.0 7.0 2.0 10.0 3.0 5.0 2.0 1.0 6.0 1.0 7.0 4.0 10.0 2.0 10.0 6.0 4.0 4.0 8.0 2.0 7.0 10.0 6.0 0.0 8.0 0.0 8.0 1.0 0.0 5.0 -437.0 3.0 3.0 2.0 6.0 0.0 6.0 4.0 0.0 5.0 0.0 3.0 10.0 1.0 5.0 6.0 9.0 8.0 5.0 8.0 0.0 8.0 7.0 3.0 0.0 7.0 8.0 2.0 1.0 10.0 6.0 3.0 9.0 5.0 5.0 0.0 0.0 7.0 0.0 5.0 3.0 5.0 6.0 2.0 7.0 8.0 8.0 2.0 
1.0 5.0 2.0 10.0 8.0 8.0 7.0 1.0 4.0 3.0 8.0 9.0 6.0 7.0 6.0 4.0 6.0 7.0 3.0 1.0 2.0 8.0 0.0 9.0 2.0 9.0 9.0 8.0 6.0 10.0 8.0 7.0 3.0 5.0 1.0 10.0 3.0 3.0 0.0 0.0 1.0 0.0 0.0 7.0 9.0 3.0 -468.0 6.0 5.0 3.0 6.0 4.0 1.0 0.0 9.0 7.0 3.0 9.0 10.0 10.0 10.0 3.0 2.0 0.0 3.0 5.0 5.0 7.0 4.0 10.0 8.0 7.0 9.0 3.0 0.0 2.0 4.0 0.0 2.0 9.0 6.0 5.0 4.0 6.0 10.0 10.0 7.0 3.0 4.0 1.0 9.0 3.0 5.0 
2.0 2.0 4.0 9.0 0.0 4.0 2.0 10.0 2.0 4.0 6.0 4.0 1.0 1.0 1.0 6.0 8.0 2.0 8.0 3.0 6.0 9.0 2.0 9.0 5.0 0.0 8.0 1.0 3.0 5.0 3.0 1.0 7.0 9.0 5.0 7.0 10.0 4.0 4.0 0.0 0.0 0.0 7.0 0.0 4.0 3.0 6.0 -419.0 4.0 7.0 1.0 10.0 7.0 9.0 2.0 6.0 5.0 8.0 3.0 3.0 6.0 2.0 8.0 1.0 6.0 1.0 9.0 2.0 1.0 4.0 8.0 6.0 9.0 0.0 10.0 8.0 2.0 1.0 8.0 3.0 6.0 4.0 8.0 8.0 8.0 8.0 7.0 3.0 2.0 0.0 5.0 2.0 1.0 
7.0 10.0 3.0 9.0 4.0 3.0 5.0 8.0 7.0 6.0 4.0 2.0 7.0 10.0 1.0 2.0 3.0 5.0 4.0 6.0 1.0 5.0 2.0 9.0 8.0 5.0 5.0 1.0 1.0 5.0 0.0 9.0 6.0 2.0 0.0 4.0 3.0 3.0 7.0 7.0 2.0 4.0 4.0 5.0 2.0 2.0 5.0 4.0 -431.0 6.0 8.0 9.0 2.0 5.0 2.0 1.0 7.0 7.0 9.0 6.0 4.0 7.0 10.0 0.0 8.0 1.0 7.0 8.0 4.0 5.0 3.0 0.0 10.0 5.0 2.0 8.0 2.0 0.0 10.0 10.0 0.0 4.0 4.0 3.0 7.0 2.0 7.0 1.0 3.0 0.0 10.0 3.0 4.0 
0.0 3.0 7.0 5.0 9.0 6.0 1.0 5.0 3.0 8.0 0.0 2.0 2.0 9.0 7.0 5.0 3.0 5.0 10.0 5.0 3.0 4.0 0.0 5.0 1.0 1.0 2.0 0.0 3.0 5.0 2.0 5.0 5.0 1.0 8.0 9.0 8.0 0.0 8.0 9.0 10.0 7.0 6.0 1.0 2.0 6.0 3.0 7.0 6.0 -441.0 2.0 4.0 0.0 9.0 6.0 2.0 1.0 2.0 10.0 1.0 3.0 7.0 5.0 10.0 9.0 3.0 10.0 8.0 9.0 7.0 4.0 0.0 6.0 3.0 4.0 7.0 2.0 2.0 8.0 9.0 10.0 3.0 8.0 0.0 2.0 9.0 5.0 1.0 1.0 10.0 2.0 7.0 8.0 
8.0 2.0 2.0 9.0 1.0 9.0 4.0 0.0 3.0 3.0 10.0 7.0 8.0 1.0 5.0 2.0 5.0 4.0 1.0 0.0 6.0 1.0 10.0 3.0 0.0 10.0 2.0 0.0 8.0 10.0 3.0 5.0 0.0 2.0 0.0 8.0 10.0 4.0 10.0 5.0 4.0 2.0 6.0 5.0 0.0 0.0 6.0 1.0 8.0 2.0 -440.0 10.0 8.0 7.0 4.0 10.0 1.0 1.0 3.0 4.0 6.0 6.0 7.0 0.0 9.0 9.0 2.0 8.0 1.0 7.0 9.0 7.0 5.0 10.0 3.0 6.0 4.0 1.0 9.0 7.0 2.0 8.0 6.0 9.0 10.0 5.0 5.0 4.0 2.0 5.0 3.0 0.0 2.0 
8.0 6.0 2.0 3.0 9.0 3.0 7.0 9.0 7.0 10.0 2.0 2.0 7.0 0.0 1.0 6.0 9.0 7.0 1.0 3.0 5.0 2.0 3.0 7.0 5.0 3.0 2.0 9.0 2.0 0.0 10.0 6.0 7.0 3.0 5.0 4.0 5.0 5.0 4.0 10.0 6.0 4.0 6.0 5.0 2.0 6.0 4.0 10.0 9.0 4.0 10.0 -449.0 5.0 4.0 1.0 1.0 6.0 5.0 10.0 3.0 10.0 10.0 3.0 8.0 1.0 2.0 0.0 3.0 4.0 4.0 4.0 0.0 3.0 1.0 7.0 0.0 1.0 5.0 1.0 7.0 8.0 1.0 3.0 8.0 10.0 0.0 6.0 9.0 9.0 4.0 7.0 4.0 6.0 
9.0 7.0 1.0 1.0 10.0 1.0 9.0 8.0 5.0 4.0 7.0 7.0 4.0 0.0 0.0 5.0 2.0 10.0 2.0 9.0 7.0 6.0 7.0 3.0 10.0 9.0 10.0 0.0 5.0 0.0 5.0 9.0 7.0 9.0 5.0 0.0 2.0 8.0 8.0 1.0 6.0 0.0 9.0 6.0 2.0 4.0 1.0 7.0 2.0 0.0 8.0 5.0 -456.0 1.0 3.0 4.0 4.0 1.0 1.0 4.0 0.0 8.0 8.0 3.0 5.0 4.0 7.0 3.0 5.0 7.0 0.0 1.0 5.0 4.0 7.0 9.0 10.0 9.0 8.0 6.0 9.0 2.0 3.0 6.0 7.0 2.0 10.0 2.0 6.0 3.0 5.0 6.0 6.0 
10.0 1.0 10.0 10.0 10.0 8.0 3.0 7.0 4.0 8.0 2.0 2.0 6.0 4.0 2.0 5.0 5.0 3.0 3.0 8.0 0.0 5.0 6.0 9.0 3.0 9.0 1.0 4.0 0.0 2.0 8.0 8.0 9.0 1.0 8.0 1.0 9.0 4.0 10.0 3.0 2.0 1.0 8.0 7.0 0.0 0.0 0.0 9.0 5.0 9.0 7.0 4.0 1.0 -456.0 6.0 6.0 10.0 0.0 1.0 4.0 4.0 6.0 3.0 2.0 2.0 2.0 0.0 9.0 6.0 8.0 10.0 1.0 0.0 8.0 5.0 8.0 3.0 8.0 8.0 4.0 0.0 9.0 7.0 5.0 6.0 3.0 9.0 7.0 1.0 1.0 10.0 6.0 4.0 
5.0 3.0 4.0 0.0 10.0 9.0 9.0 0.0 6.0 0.0 3.0 8.0 0.0 3.0 9.0 7.0 6.0 7.0 6.0 9.0 8.0 6.0 8.0 2.0 7.0 6.0 7.0 5.0 10.0 10.0 10.0 3.0 8.0 6.0 8.0 6.0 8.0 7.0 8.0 2.0 3.0 3.0 10.0 4.0 1.0 5.0 9.0 2.0 2.0 6.0 4.0 1.0 3.0 6.0 -498.0 6.0 10.0 10.0 8.0 9.0 10.0 9.0 4.0 3.0 5.0 5.0 6.0 4.0 2.0 8.0 5.0 4.0 4.0 8.0 1.0 0.0 5.0 8.0 2.0 5.0 9.0 5.0 0.0 3.0 7.0 6.0 5.0 2.0 3.0 1.0 7.0 9.0 2.0 
1.0 6.0 8.0 1.0 7.0 6.0 7.0 4.0 5.0 1.0 2.0 8.0 6.0 5.0 5.0 3.0 0.0 3.0 6.0 0.0 3.0 6.0 3.0 7.0 8.0 5.0 2.0 7.0 6.0 2.0 8.0 2.0 0.0 0.0 1.0 3.0 1.0 7.0 0.0 9.0 5.0 5.0 5.0 7.0 1.0 0.0 7.0 6.0 1.0 2.0 10.0 1.0 4.0 6.0 6.0 -424.0 9.0 5.0 7.0 9.0 7.0 3.0 7.0 8.0 7.0 5.0 4.0 3.0 9.0 1.0 7.0 0.0 9.0 9.0 0.0 4.0 2.0 1.0 1.0 3.0 8.0 10.0 6.0 8.0 3.0 4.0 4.0 4.0 5.0 7.0 5.0 6.0 4.0 
3.0 3.0 9.0 8.0 4.0 9.0 4.0 8.0 7.0 8.0 8.0 10.0 9.0 3.0 6.0 5.0 2.0 3.0 5.0 7.0 3.0 10.0 7.0 0.0 5.0 8.0 5.0 8.0 9.0 7.0 5.0 9.0 5.0 0.0 5.0 2.0 5.0 5.0 8.0 7.0 5.0 4.0 0.0 7.0 3.0 3.0 3.0 5.0 7.0 1.0 1.0 6.0 4.0 10.0 10.0 9.0 -511.0 1.0 10.0 5.0 2.0 9.0 9.0 3.0 3.0 3.0 9.0 5.0 10.0 7.0 5.0 4.0 5.0 0.0 6.0 7.0 6.0 5.0 4.0 7.0 6.0 3.0 6.0 10.0 9.0 1.0 9.0 3.0 6.0 4.0 8.0 4.0 5.0 
6.0 7.0 6.0 0.0 9.0 2.0 10.0 7.0 4.0 3.0 4.0 0.0 9.0 5.0 10.0 7.0 9.0 9.0 10.0 4.0 6.0 8.0 7.0 9.0 1.0 8.0 7.0 2.0 10.0 2.0 8.0 4.0 6.0 0.0 5.0 5.0 4.0 8.0 7.0 4.0 9.0 7.0 4.0 2.0 2.0 10.0 9.0 8.0 7.0 2.0 1.0 5.0 1.0 0.0 10.0 5.0 1.0 -487.0 6.0 10.0 4.0 1.0 4.0 6.0 4.0 4.0 0.0 6.0 5.0 8.0 4.0 4.0 3.0 4.0 10.0 4.0 10.0 2.0 10.0 5.0 8.0 4.0 0.0 4.0 1.0 4.0 10.0 7.0 0.0 8.0 8.0 1.0 3.0 
0.0 2.0 5.0 7.0 7.0 2.0 3.0 5.0 4.0 5.0 8.0 6.0 6.0 7.0 7.0 10.0 6.0 5.0 10.0 2.0 1.0 9.0 5.0 7.0 1.0 4.0 2.0 0.0 10.0 5.0 5.0 8.0 9.0 4.0 5.0 8.0 8.0 3.0 7.0 4.0 1.0 10.0 10.0 4.0 1.0 1.0 10.0 3.0 9.0 10.0 3.0 10.0 1.0 1.0 8.0 7.0 10.0 6.0 -471.0 0.0 10.0 6.0 5.0 0.0 7.0 5.0 2.0 0.0 5.0 0.0 1.0 3.0 6.0 1.0 9.0 1.0 3.0 2.0 4.0 6.0 10.0 5.0 5.0 5.0 6.0 4.0 5.0 1.0 8.0 3.0 8.0 9.0 9.0 
6.0 1.0 5.0 6.0 3.0 3.0 4.0 9.0 4.0 6.0 8.0 9.0 9.0 1.0 0.0 10.0 5.0 1.0 0.0 0.0 8.0 2.0 5.0 9.0 8.0 9.0 6.0 7.0 1.0 6.0 6.0 9.0 6.0 5.0 7.0 7.0 3.0 9.0 10.0 2.0 7.0 4.0 1.0 7.0 3.0 5.0 10.0 3.0 6.0 1.0 4.0 3.0 4.0 4.0 9.0 9.0 5.0 10.0 0.0 -531.0 8.0 10.0 10.0 8.0 7.0 7.0 4.0 4.0 9.0 6.0 3.0 9.0 3.0 5.0 9.0 9.0 7.0 6.0 1.0 9.0 6.0 6.0 9.0 2.0 7.0 7.0 7.0 9.0 7.0 10.0 7.0 9.0 1.0 
3.0 10.0 1.0 9.0 10.0 7.0 9.0 8.0 5.0 2.0 6.0 6.0 10.0 9.0 5.0 7.0 3.0 4.0 7.0 7.0 3.0 6.0 1.0 2.0 9.0 6.0 7.0 0.0 6.0 4.0 7.0 1.0 9.0 9.0 6.0 7.0 6.0 7.0 8.0 1.0 6.0 9.0 9.0 6.0 2.0 6.0 10.0 6.0 4.0 3.0 6.0 10.0 0.0 4.0 10.0 7.0 2.0 4.0 10.0 8.0 -505.0 3.0 6.0 6.0 5.0 10.0 8.0 5.0 8.0 10.0 8.0 8.0 1.0 0.0 0.0 2.0 6.0 5.0 3.0 8.0 3.0 0.0 5.0 6.0 5.0 8.0 2.0 3.0 6.0 1.0 4.0 0.0 5.0 
6.0 1.0 8.0 10.0 1.0 6.0 10.0 10.0 4.0 10.0 10.0 4.0 8.0 1.0 2.0 1.0 1.0 4.0 4.0 10.0 5.0 2.0 3.0 10.0 4.0 2.0 1.0 9.0 1.0 10.0 3.0 3.0 1.0 5.0 0.0 0.0 7.0 10.0 10.0 3.0 4.0 0.0 3.0 0.0 5.0 9.0 3.0 2.0 7.0 7.0 6.0 10.0 8.0 6.0 9.0 3.0 9.0 1.0 6.0 10.0 3.0 -486.0 10.0 7.0 10.0 6.0 5.0 6.0 10.0 2.0 3.0 3.0 2.0 7.0 9.0 2.0 0.0 7.0 10.0 4.0 4.0 5.0 7.0 8.0 9.0 8.0 4.0 9.0 2.0 2.0 5.0 3.0 6.0 
0.0 6.0 1.0 0.0 8.0 8.0 2.0 7.0 8.0 4.0 5.0 10.0 6.0 3.0 10.0 7.0 0.0 5.0 4.0 0.0 5.0 6.0 4.0 4.0 3.0 9.0 3.0 4.0 0.0 10.0 4.0 0.0 1.0 7.0 5.0 8.0 4.0 8.0 8.0 7.0 0.0 3.0 7.0 10.0 0.0 8.0 2.0 8.0 10.0 5.0 7.0 3.0 8.0 3.0 4.0 7.0 9.0 4.0 5.0 10.0 6.0 10.0 -464.0 1.0 10.0 5.0 5.0 3.0 1.0 2.0 5.0 5.0 7.0 0.0 4.0 1.0 5.0 6.0 8.0 7.0 8.0 1.0 6.0 2.0 1.0 7.0 9.0 10.0 7.0 9.0 4.0 0.0 2.0 
5.0 7.0 0.0 5.0 0.0 0.0 0.0 6.0 1.0 10.0 8.0 1.0 1.0 6.0 4.0 3.0 8.0 5.0 1.0 5.0 1.0 8.0 6.0 3.0 4.0 8.0 7.0 8.0 6.0 10.0 6.0 2.0 10.0 3.0 10.0 3.0 10.0 2.0 10.0 4.0 4.0 5.0 6.0 1.0 3.0 5.0 0.0 1.0 0.0 10.0 0.0 8.0 3.0 2.0 3.0 8.0 3.0 6.0 0.0 8.0 6.0 7.0 1.0 -444.0 1.0 5.0 7.0 0.0 6.0 9.0 7.0 5.0 6.0 6.0 1.0 10.0 7.0 10.0 9.0 0.0 7.0 2.0 9.0 9.0 5.0 2.0 10.0 5.0 4.0 4.0 2.0 9.0 0.0 
3.0 5.0 0.0 3.0 1.0 0.0 7.0 2.0 2.0 8.0 6.0 5.0 9.0 6.0 5.0 4.0 1.0 3.0 3.0 7.0 4.0 6.0 9.0 9.0 9.0 10.0 10.0 5.0 7.0 4.0 8.0 0.0 1.0 4.0 3.0 4.0 0.0 2.0 6.0 4.0 10.0 0.0 5.0 2.0 7.0 8.0 3.0 6.0 8.0 9.0 9.0 1.0 5.0 2.0 5.0 7.0 3.0 4.0 7.0 7.0 5.0 10.0 10.0 1.0 -467.0 9.0 3.0 3.0 5.0 7.0 8.0 5.0 1.0 7.0 4.0 4.0 10.0 9.0 7.0 7.0 5.0 0.0 0.0 6.0 9.0 4.0 1.0 6.0 3.0 7.0 7.0 1.0 10.0 
3.0 1.0 3.0 7.0 10.0 5.0 5.0 10.0 4.0 9.0 10.0 0.0 6.0 4.0 8.0 6.0 1.0 7.0 10.0 0.0 2.0 9.0 8.0 1.0 1.0 0.0 4.0 7.0 8.0 10.0 4.0 4.0 8.0 4.0 10.0 5.0 5.0 1.0 0.0 5.0 5.0 2.0 7.0 0.0 5.0 0.0 5.0 1.0 1.0 3.0 9.0 2.0 4.0 2.0 5.0 5.0 3.0 4.0 5.0 7.0 10.0 6.0 5.0 5.0 9.0 -449.0 7.0 2.0 10.0 6.0 1.0 1.0 5.0 8.0 0.0 1.0 3.0 8.0 7.0 1.0 5.0 6.0 5.0 8.0 6.0 4.0 2.0 10.0 4.0 6.0 5.0 5.0 8.0 
10.0 6.0 1.0 6.0 4.0 2.0 3.0 8.0 2.0 6.0 3.0 7.0 1.0 8.0 4.0 7.0 8.0 7.0 2.0 5.0 6.0 10.0 1.0 4.0 2.0 2.0 8.0 10.0 9.0 0.0 4.0 9.0 9.0 10.0 9.0 0.0 0.0 10.0 6.0 4.0 3.0 9.0 0.0 6.0 3.0 8.0 5.0 9.0 7.0 10.0 2.0 0.0 7.0 0.0 6.0 4.0 9.0 0.0 2.0 4.0 8.0 5.0 5.0 7.0 3.0 7.0 -470.0 8.0 6.0 0.0 7.0 9.0 4.0 10.0 6.0 5.0 7.0 3.0 9.0 2.0 4.0 1.0 0.0 0.0 9.0 9.0 6.0 1.0 2.0 10.0 7.0 2.0 1.0 
4.0 2.0 8.0 7.0 3.0 6.0 1.0 6.0 8.0 8.0 4.0 7.0 3.0 1.0 6.0 5.0 10.0 6.0 7.0 2.0 8.0 2.0 9.0 10.0 1.0 3.0 9.0 4.0 7.0 6.0 10.0 6.0 6.0 1.0 4.0 2.0 4.0 2.0 9.0 4.0 6.0 1.0 10.0 5.0 5.0 7.0 7.0 2.0 8.0 8.0 8.0 3.0 3.0 9.0 4.0 3.0 5.0 6.0 0.0 4.0 5.0 6.0 3.0 0.0 3.0 2.0 8.0 -444.0 0.0 8.0 6.0 0.0 9.0 2.0 7.0 2.0 2.0 4.0 5.0 3.0 2.0 3.0 3.0 4.0 2.0 0.0 8.0 6.0 2.0 10.0 8.0 4.0 2.0 
1.0 7.0 6.0 5.0 3.0 3.0 2.0 5.0 0.0 2.0 3.0 1.0 4.0 4.0 4.0 9.0 2.0 10.0 6.0 8.0 7.0 3.0 2.0 2.0 10.0 6.0 3.0 1.0 4.0 1.0 9.0 4.0 7.0 7.0 10.0 0.0 4.0 3.0 7.0 6.0 1.0 1.0 7.0 10.0 3.0 3.0 4.0 1.0 4.0 9.0 1.0 4.0 5.0 6.0 2.0 9.0 10.0 5.0 5.0 9.0 8.0 10.0 1.0 6.0 5.0 10.0 6.0 0.0 -460.0 6.0 8.0 3.0 9.0 10.0 6.0 2.0 0.0 5.0 5.0 2.0 7.0 6.0 9.0 4.0 7.0 3.0 8.0 5.0 6.0 6.0 2.0 10.0 5.0 
5.0 8.0 1.0 5.0 6.0 1.0 4.0 2.0 10.0 2.0 3.0 3.0 4.0 5.0 1.0 0.0 0.0 5.0 2.0 5.0 4.0 1.0 8.0 8.0 8.0 5.0 3.0 6.0 3.0 6.0 0.0 6.0 2.0 3.0 10.0 5.0 5.0 8.0 8.0 0.0 6.0 0.0 4.0 3.0 10.0 0.0 10.0 4.0 5.0 7.0 7.0 4.0 7.0 8.0 8.0 1.0 7.0 8.0 0.0 6.0 10.0 2.0 2.0 9.0 7.0 6.0 0.0 8.0 6.0 -480.0 9.0 9.0 9.0 7.0 8.0 10.0 8.0 3.0 3.0 8.0 4.0 3.0 6.0 8.0 8.0 9.0 6.0 3.0 3.0 8.0 7.0 9.0 6.0 
1.0 3.0 10.0 9.0 2.0 9.0 9.0 5.0 1.0 5.0 9.0 4.0 2.0 10.0 3.0 6.0 8.0 2.0 2.0 6.0 1.0 6.0 2.0 7.0 7.0 7.0 8.0 1.0 2.0 6.0 7.0 6.0 2.0 10.0 10.0 5.0 4.0 0.0 4.0 10.0 9.0 3.0 6.0 7.0 0.0 7.0 8.0 8.0 3.0 4.0 9.0 4.0 0.0 10.0 5.0 7.0 5.0 4.0 1.0 3.0 8.0 3.0 5.0 7.0 8.0 1.0 7.0 6.0 8.0 9.0 -480.0 2.0 2.0 7.0 4.0 0.0 2.0 2.0 8.0 0.0 0.0 0.0 0.0 6.0 6.0 10.0 7.0 4.0 9.0 7.0 10.0 9.0 9.0 
1.0 10.0 1.0 3.0 7.0 10.0 5.0 8.0 7.0 1.0 10.0 5.0 3.0 1.0 0.0 6.0 7.0 2.0 9.0 0.0 6.0 0.0 9.0 4.0 6.0 2.0 4.0 10.0 7.0 2.0 5.0 4.0 5.0 9.0 5.0 6.0 3.0 8.0 7.0 1.0 5.0 8.0 7.0 6.0 7.0 8.0 7.0 6.0 0.0 0.0 7.0 0.0 1.0 1.0 4.0 0.0 4.0 4.0 3.0 9.0 8.0 3.0 5.0 5.0 5.0 1.0 9.0 0.0 3.0 9.0 2.0 -429.0 8.0 10.0 4.0 6.0 4.0 0.0 10.0 7.0 1.0 9.0 9.0 1.0 2.0 4.0 5.0 2.0 1.0 0.0 3.0 0.0 7.0 
6.0 1.0 8.0 1.0 7.0 1.0 3.0 2.0 8.0 1.0 5.0 6.0 6.0 7.0 7.0 6.0 8.0 5.0 1.0 9.0 3.0 8.0 7.0 8.0 9.0 9.0 5.0 2.0 1.0 2.0 6.0 8.0 1.0 1.0 7.0 7.0 7.0 1.0 5.0 4.0 8.0 7.0 7.0 2.0 1.0 2.0 9.0 9.0 10.0 6.0 5.0 3.0 5.0 0.0 4.0 9.0 5.0 3.0 6.0 3.0 1.0 2.0 7.0 6.0 1.0 5.0 4.0 9.0 9.0 9.0 2.0 8.0 -460.0 10.0 5.0 2.0 0.0 1.0 3.0 5.0 10.0 1.0 1.0 0.0 6.0 6.0 10.0 6.0 0.0 10.0 3.0 9.0 6.0 
1.0 9.0 9.0 9.0 0.0 2.0 6.0 2.0 6.0 3.0 8.0 3.0 4.0 2.0 4.0 0.0 5.0 1.0 2.0 10.0 10.0 5.0 10.0 10.0 0.0 4.0 8.0 2.0 1.0 6.0 4.0 2.0 6.0 7.0 7.0 1.0 10.0 8.0 4.0 0.0 7.0 10.0 8.0 1.0 1.0 1.0 3.0 0.0 5.0 3.0 10.0 1.0 4.0 8.0 8.0 9.0 0.0 4.0 1.0 5.0 0.0 7.0 0.0 6.0 7.0 8.0 10.0 2.0 10.0 7.0 7.0 10.0 10.0 -462.0 1.0 7.0 8.0 1.0 10.0 7.0 7.0 0.0 8.0 6.0 0.0 9.0 4.0 2.0 6.0 1.0 7.0 6.0 8.0 
5.0 8.0 8.0 5.0 3.0 9.0 7.0 0.0 1.0 3.0 7.0 10.0 2.0 8.0 5.0 10.0 3.0 7.0 4.0 5.0 1.0 6.0 6.0 1.0 5.0 9.0 2.0 9.0 10.0 3.0 2.0 0.0 7.0 7.0 3.0 7.0 10.0 9.0 0.0 2.0 5.0 2.0 10.0 7.0 0.0 10.0 0.0 10.0 2.0 4.0 3.0 7.0 7.0 5.0 1.0 0.0 6.0 10.0 9.0 9.0 0.0 9.0 4.0 1.0 4.0 0.0 6.0 7.0 6.0 8.0 4.0 4.0 5.0 1.0 -470.0 8.0 6.0 3.0 5.0 1.0 7.0 9.0 5.0 0.0 5.0 0.0 5.0 5.0 7.0 5.0 9.0 9.0 6.0 
1.0 8.0 10.0 0.0 1.0 6.0 7.0 8.0 7.0 4.0 3.0 7.0 5.0 9.0 3.0 0.0 3.0 2.0 3.0 7.0 0.0 0.0 6.0 9.0 7.0 1.0 3.0 7.0 8.0 6.0 5.0 0.0 1.0 1.0 10.0 10.0 8.0 4.0 10.0 8.0 8.0 3.0 2.0 7.0 8.0 6.0 2.0 8.0 8.0 7.0 6.0 0.0 9.0 8.0 0.0 4.0 7.0 4.0 1.0 9.0 2.0 2.0 1.0 10.0 4.0 1.0 5.0 2.0 2.0 10.0 0.0 6.0 2.0 7.0 8.0 -429.0 3.0 3.0 1.0 7.0 7.0 1.0 2.0 4.0 0.0 4.0 9.0 0.0 3.0 6.0 6.0 1.0 5.0 
1.0 5.0 1.0 4.0 10.0 2.0 10.0 10.0 10.0 10.0 3.0 7.0 2.0 9.0 6.0 1.0 4.0 8.0 5.0 3.0 1.0 4.0 1.0 8.0 4.0 9.0 4.0 4.0 2.0 3.0 5.0 2.0 1.0 5.0 9.0 0.0 0.0 7.0 0.0 10.0 10.0 4.0 10.0 8.0 10.0 3.0 4.0 2.0 2.0 2.0 4.0 1.0 10.0 3.0 5.0 2.0 6.0 10.0 3.0 7.0 6.0 0.0 5.0 7.0 10.0 3.0 7.0 2.0 0.0 8.0 2.0 4.0 0.0 8.0 6.0 3.0 -434.0 2.0 10.0 4.0 4.0 8.0 1.0 4.0 1.0 9.0 3.0 1.0 0.0 8.0 8.0 3.0 1.0 
1.0 8.0 5.0 7.0 3.0 5.0 1.0 6.0 10.0 4.0 0.0 0.0 8.0 8.0 7.0 5.0 5.0 4.0 9.0 4.0 10.0 0.0 2.0 1.0 0.0 6.0 9.0 4.0 3.0 5.0 0.0 6.0 9.0 0.0 10.0 3.0 9.0 8.0 0.0 7.0 1.0 8.0 4.0 7.0 6.0 9.0 0.0 1.0 0.0 2.0 1.0 5.0 9.0 8.0 8.0 1.0 5.0 2.0 2.0 6.0 5.0 7.0 6.0 10.0 9.0 8.0 3.0 4.0 5.0 3.0 2.0 0.0 1.0 1.0 3.0 3.0 2.0 -458.0 8.0 10.0 2.0 5.0 7.0 6.0 10.0 10.0 6.0 2.0 10.0 7.0 9.0 10.0 7.0 
8.0 3.0 8.0 1.0 9.0 3.0 3.0 3.0 2.0 5.0 0.0 3.0 4.0 7.0 8.0 2.0 5.0 5.0 0.0 6.0 4.0 9.0 9.0 0.0 2.0 2.0 8.0 7.0 10.0 10.0 7.0 10.0 4.0 8.0 0.0 3.0 3.0 9.0 0.0 5.0 0.0 5.0 0.0 10.0 2.0 5.0 2.0 8.0 10.0 8.0 9.0 1.0 8.0 8.0 2.0 1.0 4.0 10.0 4.0 1.0 3.0 10.0 8.0 9.0 7.0 7.0 9.0 5.0 5.0 3.0 8.0 10.0 3.0 10.0 5.0 1.0 10.0 8.0 -474.0 9.0 5.0 5.0 2.0 2.0 0.0 6.0 1.0 2.0 9.0 0.0 5.0 9.0 5.0 
2.0 1.0 2.0 10.0 9.0 0.0 10.0 0.0 5.0 1.0 9.0 8.0 5.0 3.0 4.0 2.0 6.0 6.0 4.0 3.0 5.0 2.0 1.0 9.0 10.0 9.0 4.0 9.0 6.0 10.0 8.0 5.0 3.0 4.0 0.0 9.0 6.0 7.0 1.0 4.0 1.0 3.0 8.0 3.0 5.0 5.0 9.0 3.0 10.0 9.0 7.0 7.0 6.0 4.0 5.0 3.0 7.0 5.0 6.0 9.0 8.0 4.0 7.0 0.0 7.0 1.0 2.0 3.0 2.0 8.0 0.0 7.0 5.0 7.0 1.0 7.0 4.0 10.0 9.0 -452.0 6.0 1.0 4.0 1.0 2.0 4.0 4.0 3.0 2.0 10.0 2.0 0.0 4.0 
10.0 7.0 2.0 7.0 4.0 5.0 3.0 3.0 4.0 5.0 8.0 7.0 8.0 0.0 8.0 10.0 8.0 3.0 8.0 9.0 1.0 0.0 6.0 5.0 0.0 6.0 0.0 7.0 0.0 9.0 9.0 1.0 2.0 0.0 1.0 3.0 9.0 5.0 4.0 5.0 6.0 3.0 0.0 4.0 5.0 0.0 6.0 6.0 0.0 10.0 2.0 8.0 9.0 0.0 9.0 8.0 6.0 8.0 10.0 6.0 3.0 4.0 8.0 7.0 5.0 5.0 4.0 2.0 7.0 4.0 0.0 1.0 10.0 7.0 7.0 7.0 4.0 2.0 5.0 6.0 -460.0 5.0 0.0 7.0 5.0 1.0 6.0 9.0 6.0 8.0 7.0 8.0 2.0 
1.0 5.0 9.0 6.0 9.0 8.0 1.0 7.0 8.0 10.0 9.0 5.0 5.0 2.0 6.0 8.0 2.0 8.0 6.0 0.0 9.0 0.0 2.0 6.0 7.0 3.0 4.0 4.0 3.0 10.0 0.0 3.0 0.0 0.0 4.0 1.0 4.0 0.0 3.0 6.0 4.0 9.0 1.0 9.0 0.0 0.0 5.0 4.0 4.0 3.0 8.0 1.0 2.0 9.0 5.0 10.0 3.0 4.0 5.0 6.0 0.0 5.0 1.0 2.0 0.0 6.0 1.0 3.0 6.0 3.0 0.0 9.0 1.0 0.0 9.0 1.0 8.0 5.0 5.0 1.0 5.0 -392.0 4.0 3.0 4.0 1.0 4.0 0.0 2.0 7.0 10.0 5.0 5.0 
1.0 4.0 10.0 7.0 1.0 0.0 7.0 9.0 7.0 1.0 10.0 2.0 7.0 9.0 7.0 1.0 3.0 9.0 9.0 10.0 8.0 6.0 0.0 4.0 4.0 4.0 10.0 6.0 2.0 1.0 6.0 4.0 9.0 6.0 4.0 0.0 0.0 2.0 1.0 5.0 2.0 5.0 4.0 10.0 9.0 7.0 4.0 8.0 4.0 8.0 6.0 3.0 3.0 7.0 0.0 6.0 6.0 0.0 5.0 9.0 5.0 7.0 6.0 9.0 0.0 5.0 0.0 3.0 9.0 6.0 0.0 9.0 1.0 8.0 5.0 2.0 1.0 7.0 2.0 4.0 0.0 4.0 -437.0 3.0 1.0 7.0 8.0 6.0 5.0 1.0 6.0 3.0 2.0 
5.0 1.0 4.0 2.0 3.0 9.0 6.0 10.0 1.0 2.0 7.0 0.0 1.0 5.0 5.0 4.0 8.0 7.0 10.0 10.0 4.0 1.0 0.0 0.0 4.0 1.0 9.0 7.0 2.0 1.0 3.0 7.0 1.0 1.0 4.0 1.0 9.0 10.0 10.0 9.0 2.0 2.0 0.0 0.0 3.0 0.0 6.0 8.0 3.0 0.0 9.0 8.0 6.0 5.0 3.0 8.0 10.0 4.0 5.0 2.0 6.0 8.0 2.0 9.0 6.0 8.0 0.0 4.0 4.0 8.0 6.0 1.0 0.0 6.0 0.0 4.0 4.0 6.0 2.0 1.0 7.0 3.0 3.0 -415.0 8.0 7.0 3.0 7.0 5.0 0.0 2.0 8.0 9.0 
4.0 9.0 0.0 2.0 1.0 4.0 10.0 5.0 0.0 7.0 8.0 10.0 9.0 8.0 3.0 4.0 2.0 2.0 7.0 5.0 3.0 2.0 4.0 4.0 4.0 3.0 9.0 10.0 4.0 3.0 5.0 9.0 1.0 7.0 8.0 5.0 0.0 4.0 1.0 0.0 4.0 8.0 2.0 9.0 2.0 5.0 10.0 8.0 7.0 2.0 10.0 10.0 7.0 6.0 7.0 3.0 9.0 1.0 6.0 7.0 5.0 9.0 1.0 5.0 9.0 6.0 9.0 2.0 7.0 8.0 6.0 2.0 6.0 0.0 5.0 0.0 1.0 10.0 0.0 2.0 5.0 4.0 1.0 8.0 -475.0 9.0 10.0 4.0 3.0 5.0 7.0 7.0 10.0 
4.0 2.0 1.0 8.0 6.0 7.0 1.0 10.0 10.0 9.0 5.0 10.0 6.0 2.0 3.0 0.0 3.0 8.0 0.0 7.0 6.0 1.0 8.0 10.0 3.0 5.0 1.0 5.0 5.0 10.0 10.0 9.0 9.0 9.0 3.0 7.0 6.0 7.0 3.0 4.0 6.0 10.0 2.0 2.0 6.0 3.0 10.0 8.0 2.0 9.0 5.0 0.0 2.0 3.0 6.0 4.0 1.0 4.0 4.0 7.0 8.0 8.0 7.0 2.0 4.0 4.0 9.0 0.0 3.0 9.0 10.0 4.0 6.0 9.0 0.0 4.0 9.0 10.0 6.0 4.0 1.0 1.0 7.0 7.0 9.0 -493.0 4.0 7.0 3.0 2.0 9.0 9.0 1.0 
1.0 3.0 6.0 8.0 5.0 8.0 8.0 9.0 1.0 1.0 0.0 1.0 3.0 8.0 3.0 1.0 9.0 5.0 8.0 3.0 9.0 1.0 1.0 9.0 0.0 6.0 5.0 5.0 9.0 2.0 7.0 0.0 5.0 3.0 8.0 3.0 1.0 7.0 8.0 1.0 3.0 2.0 2.0 3.0 5.0 5.0 7.0 7.0 7.0 5.0 5.0 6.0 10.0 9.0 5.0 4.0 9.0 10.0 5.0 7.0 2.0 4.0 9.0 10.0 1.0 2.0 6.0 8.0 8.0 6.0 7.0 5.0 10.0 4.0 5.0 9.0 3.0 6.0 1.0 4.0 6.0 4.0 8.0 3.0 10.0 4.0 -482.0 10.0 8.0 9.0 1.0 3.0 9.0 
2.0 0.0 9.0 6.0 1.0 4.0 3.0 6.0 0.0 4.0 2.0 4.0 8.0 6.0 7.0 2.0 5.0 9.0 7.0 4.0 1.0 5.0 0.0 1.0 4.0 7.0 9.0 5.0 9.0 7.0 2.0 10.0 9.0 4.0 0.0 4.0 9.0 0.0 9.0 7.0 3.0 7.0 9.0 7.0 8.0 6.0 3.0 3.0 1.0 1.0 4.0 9.0 2.0 7.0 2.0 4.0 3.0 7.0 1.0 9.0 3.0 9.0 10.0 5.0 6.0 10.0 1.0 6.0 5.0 3.0 4.0 2.0 6.0 2.0 5.0 0.0 1.0 2.0 2.0 3.0 9.0 0.0 6.0 7.0 4.0 7.0 10.0 -438.0 8.0 6.0 0.0 1.0 8.0 
3.0 0.0 10.0 3.0 0.0 1.0 9.0 3.0 0.0 4.0 5.0 8.0 1.0 3.0 5.0 10.0 1.0 4.0 7.0 1.0 0.0 4.0 4.0 3.0 10.0 9.0 4.0 0.0 3.0 8.0 6.0 0.0 9.0 4.0 1.0 8.0 2.0 9.0 10.0 10.0 2.0 9.0 5.0 8.0 1.0 2.0 4.0 2.0 3.0 1.0 2.0 9.0 6.0 1.0 3.0 5.0 6.0 0.0 8.0 7.0 6.0 2.0 7.0 4.0 3.0 4.0 2.0 2.0 6.0 3.0 9.0 1.0 0.0 6.0 7.0 3.0 0.0 10.0 9.0 2.0 6.0 2.0 5.0 5.0 3.0 3.0 8.0 8.0 -411.0 5.0 3.0 7.0 4.0 
8.0 0.0 0.0 9.0 0.0 0.0 3.0 7.0 9.0 0.0 0.0 6.0 0.0 0.0 0.0 0.0 0.0 6.0 3.0 5.0 5.0 9.0 10.0 1.0 1.0 1.0 7.0 9.0 6.0 4.0 1.0 3.0 10.0 2.0 3.0 1.0 1.0 10.0 10.0 4.0 4.0 5.0 6.0 3.0 9.0 7.0 1.0 0.0 0.0 10.0 5.0 4.0 3.0 1.0 1.0 7.0 4.0 8.0 3.0 10.0 1.0 2.0 9.0 4.0 7.0 6.0 10.0 10.0 6.0 8.0 7.0 0.0 10.0 1.0 5.0 6.0 8.0 7.0 0.0 10.0 8.0 7.0 1.0 0.0 5.0 2.0 9.0 6.0 5.0 -426.0 7.0 10.0 4.0 
10.0 0.0 6.0 1.0 5.0 9.0 6.0 5.0 7.0 3.0 2.0 8.0 0.0 10.0 4.0 4.0 9.0 4.0 4.0 2.0 2.0 10.0 10.0 7.0 1.0 5.0 3.0 1.0 3.0 10.0 9.0 3.0 9.0 4.0 2.0 8.0 3.0 1.0 5.0 10.0 7.0 3.0 2.0 9.0 3.0 8.0 9.0 5.0 10.0 2.0 3.0 7.0 5.0 10.0 7.0 5.0 8.0 8.0 8.0 7.0 4.0 5.0 4.0 2.0 7.0 5.0 7.0 8.0 2.0 7.0 10.0 3.0 3.0 7.0 9.0 6.0 8.0 9.0 5.0 2.0 7.0 10.0 6.0 2.0 7.0 9.0 1.0 0.0 3.0 7.0 -513.0 10.0 7.0 
0.0 0.0 5.0 3.0 8.0 6.0 10.0 3.0 5.0 7.0 9.0 9.0 4.0 6.0 10.0 4.0 6.0 9.0 3.0 0.0 6.0 9.0 4.0 4.0 1.0 2.0 7.0 3.0 7.0 7.0 3.0 4.0 3.0 10.0 4.0 3.0 10.0 9.0 5.0 10.0 2.0 10.0 0.0 8.0 2.0 8.0 3.0 2.0 3.0 7.0 0.0 4.0 6.0 6.0 9.0 6.0 4.0 1.0 9.0 9.0 0.0 3.0 0.0 9.0 1.0 5.0 2.0 4.0 10.0 9.0 9.0 0.0 9.0 6.0 9.0 1.0 3.0 10.0 9.0 0.0 8.0 5.0 3.0 8.0 7.0 9.0 3.0 1.0 7.0 10.0 10.0 -494.0 7.0 
0.0 0.0 5.0 8.0 5.0 8.0 0.0 6.0 4.0 0.0 1.0 9.0 2.0 7.0 2.0 9.0 7.0 1.0 1.0 3.0 8.0 9.0 8.0 4.0 7.0 0.0 9.0 10.0 9.0 10.0 8.0 2.0 1.0 9.0 7.0 9.0 1.0 2.0 0.0 10.0 0.0 1.0 1.0 10.0 6.0 2.0 5.0 1.0 4.0 8.0 2.0 6.0 6.0 4.0 2.0 4.0 5.0 3.0 9.0 1.0 5.0 6.0 2.0 0.0 10.0 8.0 1.0 2.0 5.0 6.0 9.0 7.0 6.0 8.0 6.0 5.0 1.0 7.0 5.0 4.0 2.0 5.0 2.0 9.0 10.0 1.0 9.0 8.0 4.0 4.0 7.0 7.0 -452.0 

